-1 -451 0
-450 -451 0
-451 0
1 0
-51 0
401 0
-393 0
43 0
101 0
-351 0
-303 0
-93 0
-345 0
-99 0
-403 0
-151 0
37 0
18 0
7 0
443 0
25 0
449 0
53 0
26 0
33 0
-267 0
-292 0
-299 0
-87 0
-237 0
-279 0
-309 0
-367 0
-135 0
-183 0
-339 0
-153 0
-68 0
-170 0
-218 0
-260 0
-284 0
-320 0
-178 0
-185 0
-189 0
-195 0
-253 0
-249 0
-291 0
-297 0
-57 0
-159 0
-207 0
-273 0
-15 0
-104 0
-111 0
-112 0
-119 0
-123 0
-129 0
-187 0
-315 0
-363 0
-243 0
-201 0
-357 0
-141 0
-177 0
-61 0
-212 0
-75 0
-219 0
-225 0
-220 0
-227 0
-231 0
-295 0
-255 0
-327 0
-62 0
-399 0
-147 0
-369 0
-380 0
-387 0
-388 0
-39 0
-405 0
-103 0
-139 0
-205 0
-247 0
-319 0
-355 0
-415 0
-81 0
-3 0
-76 0
-226 0
-301 0
-268 0
-233 0
-328 0
-4 0
-275 0
-395 0
-343 0
-83 0
-54 0
-335 0
-285 0
329 0
0
